NAME : XML100_3271_12
DIMENSION : 101
NB_CLUSTERS : 3
CLUSTERING_ALG : KMeans
CLUSTERING_PARAMS : k(2)
CLUSTERS
1 0
2 9 10 13 14 15 17 19 20 21 22 25 27 35 36 39 40 43 44 47 49 50 51 52 53 58 61 65 69 75 77 82 83 87 92
3 1 2 3 4 5 6 7 8 11 12 16 18 23 24 26 28 29 30 31 32 33 34 37 38 41 42 45 46 48 54 55 56 57 59 60 62 63 64 66 67 68 70 71 72 73 74 76 78 79 80 81 84 85 86 88 89 90 91 93 94 95 96 97 98 99 100
EOF